%chk=[CH]CCCCCCdCCCCC.chk
%NProcShared=20
# opt freq b3lyp/6-31g(2df,p)

Title Card Required 

0  1
C           1.15591        -0.03507         0.20567
C           2.59452         0.01042        -0.04132
C           3.01889         0.27539        -1.48019
C           4.54995         0.28335        -1.52339
C           5.07304         0.54169        -2.92623
C           6.59915         0.54313        -2.93404
C           7.11533         0.79697        -4.31244
C           8.43044         0.84711        -4.58474
C           8.94232         1.10147        -5.96598
C          10.46689         1.10494        -5.98483
C          10.99230         1.36407        -7.39193
C          12.50979         1.36599        -7.40237
H           0.20003        -0.11985         0.66607
H           3.01767        -0.94635         0.28161
H           3.01767         0.78937         0.60126
H           2.63204         1.23799        -1.83831
H           2.63204        -0.49648        -2.15773
H           4.93352        -0.67950        -1.16147
H           4.93352         1.05410        -0.84222
H           4.69715         1.50679        -3.28745
H           4.69715        -0.23142        -3.60755
H           6.97040        -0.42492        -2.57505
H           6.97040         1.31978        -2.25376
H           6.39972         0.94500        -5.11632
H           9.14626         0.69909        -3.78097
H           8.56914         2.06948        -6.32188
H           8.56913         0.32376        -6.64336
H          10.84504         0.14082        -5.62098
H          10.84505         1.87620        -5.30139
H          10.62218         2.32914        -7.75714
H          10.62218         0.59241        -8.07697
H          12.90119         2.14628        -6.74174
H          12.88260         1.55215        -8.41321
H          12.90119         0.40156        -7.06305

