%chk=Cc1cccqCrc2c1CCqCqdOrOrCC2C.chk
%NProcShared=20
# opt freq b3lyp/6-31g(2df,p)

Title Card Required 

0  1
C           0.93302        -0.02505        -0.04784
C           2.43831        -0.05545        -0.05828
C           3.14925         1.14923        -0.05042
C           4.54228         1.15228        -0.03652
C           5.26157        -0.04826        -0.02476
C           6.76643         0.01150         0.01415
C           4.56100        -1.27858        -0.04491
C           3.14296        -1.27982        -0.07331
C           2.35798        -2.57929        -0.05103
C           3.17466        -3.81572        -0.43134
C           2.36952        -5.07342        -0.18938
O           1.22077        -5.08797         0.23592
O           3.00049        -6.21369        -0.54839
C           4.47332        -3.78400         0.36890
C           5.33284        -2.58979        -0.07327
C           5.89719        -2.84349        -1.47899
H           0.54580         0.99804        -0.03518
H           0.55234        -0.53736         0.84211
H           0.53929        -0.51202        -0.94573
H           2.62118         2.10020        -0.05029
H           5.06624         2.10566        -0.03058
H           7.13515         1.04022         0.04381
H           7.20149        -0.43696        -0.87982
H           7.14535        -0.50661         0.90013
H           1.51131        -2.51515        -0.74422
H           1.94631        -2.69817         0.96055
H           3.36441        -3.78232        -1.51054
H           3.89439        -6.10398        -0.92260
H           5.04578        -4.71082         0.25677
H           4.24107        -3.69889         1.44030
H           6.16212        -2.52727         0.64267
H           5.10684        -2.91994        -2.23075
H           6.48356        -3.76605        -1.49293
H           6.54708        -2.04263        -1.83089

