%chk=Cc1ccqCqdSrN2CCOCC2rcqCrn1C.chk
%NProcShared=20
# opt freq b3lyp/6-31g(2df,p)

Title Card Required 

0  1
C           1.09159        -0.06667         0.03847
C           2.58236        -0.02845         0.03761
C           3.43911         1.05702         0.00359
C           4.81196         0.61045         0.08476
C           6.02179         1.48807         0.10254
S           7.57086         0.83144         0.06880
N           5.83752         2.87856         0.09560
C           5.11325         3.51129         1.20431
C           4.62006         4.89951         0.78832
O           5.70640         5.72723         0.33887
C           6.36399         5.12459        -0.78509
C           6.91156         3.75207        -0.41599
C           4.71448        -0.79149         0.07891
C           5.74736        -1.87279         0.07797
N           3.37377        -1.14742         0.05676
C           2.85682        -2.50592         0.03945
H           0.67069         0.94429         0.04151
H           0.71399        -0.58259         0.92857
H           0.71022        -0.58345        -0.84860
H           3.09020         2.07745        -0.05424
H           5.82805         3.59585         2.03292
H           4.29234         2.89450         1.57120
H           4.14933         5.40100         1.63803
H           3.88057         4.82414        -0.01755
H           7.18372         5.77912        -1.09674
H           5.65582         5.04523        -1.61790
H           7.66442         3.84812         0.37790
H           7.38209         3.29980        -1.29568
H           6.77455        -1.53738         0.08492
H           5.64929        -2.48472        -0.82417
H           5.63792        -2.49769         0.96855
H           3.66853        -3.23406         0.03889
H           2.26307        -2.63978        -0.86818
H           2.24729        -2.65536         0.93350

