%chk=CC1CCCCN1c1cnccqCqOrdNNrn1.chk
%NProcShared=20
# opt freq b3lyp/6-31g(2df,p)

Title Card Required 

0  1
C           1.07823         0.08368         0.00835
C           2.61456         0.07068        -0.06871
C           3.11213        -1.34009        -0.43381
C           2.69265        -1.72712        -1.85379
C           3.17817        -0.67102        -2.85143
C           2.71568         0.75045        -2.47559
N           3.09024         1.01322        -1.08977
C           3.80797         2.15296        -0.76556
C           5.04682         2.05897        -0.11964
N           5.83253         3.11864         0.21444
C           5.32021         4.32888        -0.10526
C           4.09405         4.48039        -0.73441
C           3.50887         5.84122        -1.03294
O           4.22478         6.95615        -0.70007
N           2.34414         5.97583        -1.58797
N           1.91749         7.22976        -1.78378
N           3.34133         3.38434        -1.09300
H           0.72046        -0.65873         0.72971
H           0.60211        -0.15915        -0.94794
H           0.70483         1.06836         0.30101
H           3.00340         0.33136         0.92362
H           2.73160        -2.07973         0.28079
H           4.20769        -1.37075        -0.36906
H           1.60258        -1.82589        -1.91746
H           3.10043        -2.71186        -2.10844
H           2.82619        -0.93083        -3.85527
H           4.27512        -0.69928        -2.87396
H           1.62871         0.82340        -2.59303
H           3.15687         1.47050        -3.17336
H           5.47297         1.09030         0.11881
H           5.95976         5.15370         0.17990
H           5.08241         6.82192        -0.28498
H           1.02767         7.37692        -2.23948
H           2.50749         8.02044        -1.54702

