%chk=CC1qCrCCC2qCC1rCCqdOrOCqdOrC2.chk
%NProcShared=20
# opt freq b3lyp/6-31g(2df,p)

Title Card Required 

0  1
C           1.02290         0.15214        -0.01045
C           2.56228         0.10999        -0.01025
C           3.10234         1.54210        -0.06815
C           3.06119        -0.52966         1.29717
C           2.64451        -1.98568         1.38426
C           3.17109        -2.80153         0.17537
C           2.67357        -2.17868        -1.14687
C           3.05415        -0.69247        -1.23875
C           4.69718        -2.85823         0.15779
C           5.17521        -3.44878         1.44321
O           6.03541        -2.89302         2.12512
O           4.63251        -4.62941         1.80481
C           3.31056        -4.82282         1.58875
O           2.63186        -5.47057         2.38170
C           2.71001        -4.24410         0.33088
H           0.64819         0.69129         0.86459
H           0.57237        -0.84478         0.01787
H           0.64748         0.63836        -0.91479
H           2.76102         2.11657         0.80054
H           2.76073         2.05458        -0.97180
H           4.19839         1.55339        -0.06260
H           2.67430         0.00576         2.17207
H           4.15430        -0.45441         1.36954
H           1.55240        -2.06861         1.44094
H           2.99975        -2.38485         2.34060
H           1.58512        -2.28532        -1.23168
H           3.08716        -2.71569        -2.01011
H           2.64822        -0.26583        -2.16397
H           4.14411        -0.60084        -1.33459
H           5.14930        -1.86674         0.05427
H           5.07799        -3.45765        -0.67702
H           1.61579        -4.28791         0.41022
H           3.00056        -4.87150        -0.51904

