%chk=CCC1qc2cccqOrcc2rCCCqOrdNC1dO.chk
%NProcShared=20
# opt freq b3lyp/6-31g(2df,p)

Title Card Required 

0  1
C           0.93371         0.22136        -0.02947
C           2.44216         0.11741         0.03544
C           3.01837        -1.06583         0.88172
C           2.94534        -0.88765         2.41907
C           3.49080         0.22959         3.07478
C           3.46684         0.31651         4.47433
C           2.87367        -0.69752         5.22302
O           2.78531        -0.65663         6.58020
C           2.34934        -1.81355         4.60763
C           2.41308        -1.91602         3.22765
C           4.51943        -1.07687         0.50768
C           5.06718        -2.35943        -0.04836
C           4.09938        -3.47596        -0.15773
O           4.63186        -4.62581        -0.59520
N           2.84238        -3.46692         0.06690
C           2.21008        -2.34984         0.50266
O           0.99748        -2.41855         0.73298
H           0.63563         1.08325        -0.62955
H           0.51276         0.30426         0.97364
H           0.50918        -0.64675        -0.54125
H           2.85594         1.07644         0.37346
H           2.77770        -0.00478        -1.00718
H           3.97646         1.02358         2.50991
H           3.91972         1.17569         4.95802
H           3.14791         0.18589         6.89028
H           1.89044        -2.61289         5.18116
H           2.01535        -2.84177         2.81742
H           5.15840        -0.76484         1.34494
H           4.73882        -0.29498        -0.23600
H           5.90952        -2.67956         0.57271
H           5.44375        -2.16258        -1.05794
H           5.57255        -4.55347        -0.81059

