%chk=CCCCOPqdOrqCqCrCrCqCrC.chk
%NProcShared=20
# opt freq b3lyp/6-31g(2df,p)

Title Card Required 

0  1
C           0.90706         0.08203         0.01755
C           2.41784         0.06986         0.06451
C           2.93557         0.10011         1.49912
C           4.44300         0.11035         1.48616
O           4.99156         0.18452         2.80509
P           6.72156         0.18452         2.80509
O           6.82354         1.12332         1.58582
C           6.61851         1.49256         4.38629
C           7.02310         2.93958         4.08048
C           5.18381         1.59072         4.92326
C           8.55156         0.18452         2.80509
C           9.42809         1.39239         3.05770
C           9.03570        -0.92588         3.76092
H           0.55629         0.05160        -1.01458
H           0.51402         0.98960         0.48979
H           0.50009        -0.78726         0.54824
H           2.80225         0.93880        -0.49235
H           2.79542        -0.82338        -0.45161
H           2.56942        -0.76419         2.07086
H           2.56903         0.99523         2.02051
H           4.74550         0.99314         0.90930
H           4.84066        -0.78562         0.99261
H           7.26179         1.02199         5.13576
H           6.43366         3.35235         3.25761
H           8.06146         3.11236         3.83197
H           6.86682         3.55418         4.97380
H           4.53943         2.08790         4.18432
H           5.15649         2.19973         5.83044
H           4.76215         0.61033         5.15262
H           8.82508        -0.17359         1.80100
H           9.38863         1.68514         4.11234
H           9.15822         2.22295         2.40226
H          10.48341         1.17013         2.86566
H           8.71332        -0.72924         4.78808
H          10.12888        -1.00524         3.75950
H           8.62679        -1.89619         3.46437

