%chk=CCCCNqc1cccqFrcc1CtNrC1CC1.chk
%NProcShared=20
# opt freq b3lyp/6-31g(2df,p)

Title Card Required 

0  1
C           1.05529        -0.01809        -0.09497
C           2.58104        -0.12382        -0.16030
C           3.12910         1.18923        -0.65636
C           4.60998         1.44916        -0.47019
N           4.98609         2.84712        -0.79122
C           4.07524         3.92348        -0.84182
C           4.21034         4.79445        -1.94927
C           3.50061         5.98251        -2.07352
C           2.46634         6.22102        -1.19912
F           1.71027         7.31258        -1.34523
C           2.18227         5.32921        -0.18290
C           3.01861         4.22866         0.05855
C           2.62312         3.47853         1.23369
N           2.15646         2.83068         2.06764
C           6.45955         3.10789        -0.80009
C           7.25253         2.76899        -2.04424
C           7.17620         4.19052        -1.57371
H           0.62400        -0.98451         0.16482
H           0.64662         0.31658        -1.05433
H           0.72389         0.70667         0.66272
H           2.89787        -0.92602        -0.82370
H           2.95503        -0.31990         0.85308
H           2.62590         1.83108         0.01357
H           2.75640         1.50903        -1.63477
H           5.15661         0.76881        -1.13716
H           4.93072         1.21550         0.55359
H           4.88112         4.53455        -2.76481
H           3.73556         6.69000        -2.86047
H           1.30878         5.50101         0.44026
H           6.90285         2.86943         0.16673
H           6.68634         2.48146        -2.92461
H           8.20230         2.25471        -1.96435
H           6.65893         4.90703        -2.18890
H           8.04129         4.67129        -1.13266

