%chk=CCCCn1ccnc1.chk
%NProcShared=20
# opt freq b3lyp/6-31g(2df,p)

Title Card Required 

0  1
C           0.93156        -0.01461         0.06701
C           2.45077        -0.01297         0.07512
C           2.97429         0.62956         1.35228
C           4.49865         0.65877         1.38507
N           4.96712         1.29554         2.59910
C           4.87540         2.62839         2.88667
C           5.30305         2.73496         4.18925
N           5.68532         1.51200         4.67789
C           5.47706         0.66373         3.69462
H           0.55562        -0.47514        -0.85061
H           0.54115         1.00696         0.12322
H           0.53887        -0.57703         0.92039
H           2.81957         0.53758        -0.79796
H           2.81963        -1.04166        -0.00514
H           2.59723         0.08344         2.22679
H           2.58041         1.65115         1.43181
H           4.90695         1.22283         0.53887
H           4.91162        -0.35583         1.34812
H           4.49376         3.35501         2.18406
H           5.34775         3.62605         4.80053
H           5.65932        -0.40189         3.73367

