%chk=CCCqCrCqdOrc1ccccc1.chk
%NProcShared=20
# opt freq b3lyp/6-31g(2df,p)

Title Card Required 

0  1
C           0.99577        -0.05844         0.02992
C           2.51753        -0.08663        -0.04367
C           3.04453        -1.05367        -1.12773
C           2.45745        -0.65755        -2.47881
C           4.58310        -1.06682        -1.11868
O           5.24637        -0.39671        -0.31888
C           5.33023        -1.99725        -2.01152
C           6.38401        -2.73909        -1.46850
C           7.16770        -3.54774        -2.29687
C           6.85021        -3.69011        -3.64796
C           5.80160        -2.96206        -4.19155
C           5.08439        -2.08310        -3.38492
H           0.65874         0.62398         0.81293
H           0.60360        -1.05912         0.23512
H           0.54758         0.30087        -0.90025
H           2.91182        -0.37344         0.93978
H           2.88672         0.92831        -0.24122
H           2.71794        -2.06881        -0.86517
H           2.87089         0.30101        -2.81118
H           1.37036        -0.58622        -2.47070
H           2.62977        -1.41910        -3.23392
H           6.61361        -2.67091        -0.40664
H           8.03815        -4.05657        -1.89208
H           7.43546        -4.34614        -4.28572
H           5.56081        -3.03581        -5.24911
H           4.37995        -1.44101        -3.89103

