%chk=CCCSCqCqdNrOrc1ccccn1.chk
%NProcShared=20
# opt freq b3lyp/6-31g(2df,p)

Title Card Required 

0  1
C           0.99106         0.09819         0.04005
C           2.51268         0.10712         0.03706
C           3.06384         0.01691         1.45910
S           4.87913        -0.05103         1.38774
C           5.40684        -0.12314         3.16847
C           4.89505        -1.38265         3.89619
N           5.61367        -2.33255         4.40369
O           3.57639        -1.50654         4.09955
C           6.94043        -0.03090         3.19008
C           7.60355         1.19250         3.25283
C           9.00110         1.20170         3.23766
C           9.70340         0.00347         3.15972
C           8.97953        -1.16661         3.09227
N           7.63226        -1.20215         3.10026
H           0.61103         0.13761        -0.98534
H           0.59513         0.95969         0.58652
H           0.60526        -0.81315         0.50915
H           2.86627         1.01714        -0.46127
H           2.86128        -0.75111        -0.55113
H           2.67810        -0.90588         1.89386
H           2.73303         0.87428         2.05615
H           4.99955         0.74722         3.69948
H           6.60734        -2.14411         4.18038
H           3.05312        -0.75598         3.79813
H           7.05839         2.12924         3.30491
H           9.54494         2.14133         3.28274
H          10.78693        -0.02116         3.14929
H           9.46522        -2.13686         3.03589

