%chk=CCOCqdSrSCqdOrc1ccco1.chk
%NProcShared=20
# opt freq b3lyp/6-31g(2df,p)

Title Card Required 

0  1
C           1.06144         0.04598        -0.07044
C           2.58138         0.05925        -0.05650
O           3.17148        -0.89892        -0.98886
C           4.55502        -1.02396        -1.11803
S           5.53462        -0.04443        -0.16933
S           5.07436        -2.21938        -2.33216
C           6.84529        -2.27263        -2.28541
O           7.53997        -1.58811        -1.54136
C           7.43347        -3.22515        -3.21133
C           7.24573        -3.48098        -4.56011
C           8.14994        -4.51291        -4.92227
C           8.86207        -4.81320        -3.78706
O           8.45772        -4.02665        -2.75571
H           0.67740         0.78328         0.64692
H           0.66870        -0.93561         0.20800
H           0.66928         0.29818        -1.05941
H           2.90721        -0.18643         0.96011
H           2.90687         1.06902        -0.33001
H           6.55768        -2.96376        -5.21238
H           8.27704        -4.97472        -5.89226
H           9.65231        -5.52022        -3.56569

