%chk=CCqCrCOCCCN.chk
%NProcShared=20
# opt freq b3lyp/6-31g(2df,p)

Title Card Required 

0  1
C           1.06278        -0.03981         0.07015
C           2.58943        -0.04700         0.03877
C           3.10801        -1.42856        -0.36310
C           3.09002         1.03226        -0.92325
O           4.51638         1.06411        -0.91791
C           5.00298         2.03016        -1.84570
C           6.52436         2.01342        -1.83654
C           7.06287         3.05653        -2.80858
N           8.51911         3.05127        -2.81709
H           0.68176        -0.78748         0.77271
H           0.64808        -0.26121        -0.91962
H           0.68460         0.93967         0.38179
H           2.97014         0.17250         1.04443
H           2.77155        -1.69749        -1.37021
H           2.74797        -2.19488         0.33107
H           4.20243        -1.46008        -0.35284
H           2.71253         2.01390        -0.61272
H           2.73329         0.82619        -1.93989
H           4.63544         3.02165        -1.55723
H           4.63252         1.79097        -2.84941
H           6.88146         1.01050        -2.10379
H           6.88703         2.20278        -0.81827
H           6.70543         4.05330        -2.52629
H           6.69842         2.84913        -3.82046
H           8.86879         3.27330        -1.88676
H           8.85748         3.78824        -3.43573

