%chk=CCqCrqOrC1CCCN1.chk
%NProcShared=20
# opt freq b3lyp/6-31g(2df,p)

Title Card Required 

0  1
C           1.03680        -0.02082        -0.01482
C           2.57057        -0.06058        -0.02314
C           3.11079         1.26333        -0.57502
O           2.99834        -0.20291         1.33712
C           3.08155        -1.26403        -0.87146
C           2.50233        -2.60262        -0.42933
C           3.41716        -3.60842        -1.09183
C           4.76721        -2.91210        -1.14922
N           4.53256        -1.51332        -0.79438
H           0.66921         0.81754         0.58688
H           0.61801        -0.92124         0.44824
H           0.63353         0.07016        -1.02808
H           2.76614         2.10890         0.03153
H           2.77943         1.42622        -1.60637
H           4.20495         1.29308        -0.55218
H           2.71534         0.58490         1.83305
H           2.81921        -1.09341        -1.92548
H           1.46608        -2.73632        -0.75508
H           2.54005        -2.71737         0.66063
H           3.05978        -3.81607        -2.10751
H           3.44689        -4.55188        -0.53945
H           5.20307        -3.00181        -2.14952
H           5.46574        -3.35820        -0.43399
H           5.06007        -0.87838        -1.38741

