%chk=CCqOrCCc1cccqCqCrqCrCrcc1.chk
%NProcShared=20
# opt freq b3lyp/6-31g(2df,p)

Title Card Required 

0  1
C           1.04012        -0.04873         0.07676
C           2.56122        -0.08456         0.06583
O           3.00606        -0.87078        -1.03182
C           3.09032         1.32798        -0.06698
C           4.61711         1.40979        -0.09180
C           5.10474         2.83506        -0.17883
C           6.47574         3.09942        -0.11993
C           6.92789         4.42169        -0.10396
C           6.03391         5.49941        -0.21543
C           6.53718         6.93764        -0.33176
C           7.31344         7.32498         0.93723
C           7.45658         7.03302        -1.56482
C           5.38790         7.95382        -0.52488
C           4.66791         5.21590        -0.27919
C           4.21840         3.90712        -0.27106
H           0.63562        -1.06053         0.15423
H           0.65448         0.38205        -0.85508
H           0.66451         0.55187         0.91205
H           2.93443        -0.53889         0.98904
H           2.73815        -0.41774        -1.85065
H           2.70214         1.92521         0.76981
H           2.70057         1.76152        -0.99901
H           5.01793         0.84135        -0.93885
H           5.01267         0.97041         0.83197
H           7.19584         2.28780        -0.08215
H           7.99869         4.59497        -0.01265
H           8.18425         6.68077         1.10041
H           6.67806         7.24803         1.82773
H           7.67826         8.35564         0.87136
H           8.33135         6.37870        -1.47976
H           7.82590         8.05383        -1.70312
H           6.92088         6.74019        -2.47669
H           4.69917         7.94586         0.32982
H           4.80493         7.72761        -1.42773
H           5.76311         8.97524        -0.63090
H           3.90920         5.98487        -0.34313
H           3.14244         3.77579        -0.33658

