%chk=CdCqCrCqdOrOCC1CO1.chk
%NProcShared=20
# opt freq b3lyp/6-31g(2df,p)

Title Card Required 

0  1
C           1.00656         0.03137        -0.10215
C           2.35321         0.03579        -0.10282
C           3.11018         0.62055         1.04846
C           3.05666        -0.56016        -1.28347
O           2.46289        -1.06413        -2.23091
O           4.41193        -0.48659        -1.17658
C           5.12195        -1.07192        -2.29492
C           6.60033        -1.05367        -2.03271
C           7.54072        -1.82902        -2.93495
O           7.41014        -0.40566        -3.02494
H           0.43801         0.44996         0.72413
H           0.42768        -0.38592        -0.92156
H           2.42827         1.01137         1.81656
H           3.73487         1.45747         0.72467
H           3.73376        -0.13489         1.53479
H           4.88351        -0.52228        -3.21450
H           4.81283        -2.11796        -2.41122
H           6.86326        -0.90331        -0.99581
H           7.14715        -2.40685        -3.76307
H           8.45473        -2.23296        -2.51401

