%chk=Cn1nccc1CNc1cccqCtNrcc1.chk
%NProcShared=20
# opt freq b3lyp/6-31g(2df,p)

Title Card Required 

0  1
C          -2.11024         0.07486        -0.05217
N          -0.67340        -0.04651         0.02450
N           0.04345         1.09460         0.01688
C           1.30850         0.68574        -0.02415
C           1.41071        -0.71256        -0.02485
C           0.10691        -1.18294         0.02814
C          -0.35391        -2.61290         0.06147
N          -1.77843        -2.85494         0.07513
C          -2.40245        -4.07238         0.15359
C          -1.93799        -5.09727         0.96790
C          -2.62520        -6.30835         1.03938
C          -3.78067        -6.51005         0.27985
C          -4.51558        -7.73402         0.41422
N          -5.11325        -8.71476         0.55166
C          -4.23242        -5.50456        -0.57446
C          -3.54825        -4.29038        -0.62705
H          -2.41441         1.12146        -0.03254
H          -2.55326        -0.41768         0.81780
H          -2.43263        -0.37438        -0.99778
H           2.09942         1.42365        -0.05605
H           2.31778        -1.30007        -0.06157
H           0.11876        -3.08834         0.93051
H           0.06279        -3.10790        -0.82665
H          -2.42238        -2.09637         0.00362
H          -1.07605        -4.93725         1.60844
H          -2.25715        -7.08226         1.70771
H          -5.11415        -5.64946        -1.19496
H          -3.91108        -3.51009        -1.29516

