%chk=COc1cq[N]CtNrcccq[N]CtNrc1OC.chk
%NProcShared=20
# opt freq b3lyp/6-31g(2df,p)

Title Card Required 

0  1
C           1.13115         0.49035        -0.29971
O           2.44502        -0.02446        -0.07526
C           2.97845         0.02269         1.21378
C           4.12250         0.85694         1.40528
N           4.56886         1.87806         0.61413
C           3.68445         2.34284        -0.46395
N           3.02441         2.72437        -1.33068
C           4.90633         0.55963         2.55157
C           4.53355        -0.39383         3.52697
C           3.38933        -1.19321         3.39805
N           3.14163        -2.12194         4.38463
C           1.98073        -3.02980         4.22403
N           1.06426        -3.73517         4.09221
C           2.63424        -0.97198         2.20328
O           1.61954        -1.88543         2.12146
C           0.63188        -1.75409         1.17543
H           1.01970         0.85840        -1.32058
H           0.77635         1.19046         0.46189
H           0.40845        -0.31623        -0.40391
H           5.86401         1.06377         2.69572
H           5.16748        -0.51293         4.40514
H          -0.16033        -2.49703         1.23881
H           1.11783        -1.94055         0.21524
H           0.12808        -0.80348         1.37546

