%chk=COc1cccc2nc3ccccc3nc12.chk
%NProcShared=20
# opt freq b3lyp/6-31g(2df,p)

Title Card Required 

0  1
C           1.08725         0.02502        -0.01255
O           2.50903         0.06450        -0.04651
C           3.15788        -1.00785         0.52627
C           2.79411        -2.32785         0.24765
C           3.55465        -3.37428         0.75870
C           4.66678        -3.09885         1.55385
C           5.05254        -1.79355         1.82902
N           6.15940        -1.58690         2.57127
C           6.55972        -0.31205         2.74208
C           7.73466        -0.02889         3.43373
C           8.21096         1.27994         3.54814
C           7.48383         2.32588         2.99581
C           6.28304         2.05607         2.34283
C           5.82077         0.75665         2.19805
N           4.68919         0.55169         1.51066
C           4.29852        -0.72290         1.29586
H           0.72358         0.96448        -0.44320
H           0.71534        -0.03701         1.01538
H           0.68309        -0.78539        -0.62507
H           1.95619        -2.55629        -0.40233
H           3.30059        -4.40465         0.52179
H           5.26516        -3.91888         1.94482
H           8.30231        -0.84637         3.87077
H           9.15115         1.47672         4.05703
H           7.84536         3.34853         3.06209
H           5.70303         2.86797         1.91204

