%chk=CP1qdOrCCCO1.chk
%NProcShared=20
# opt freq b3lyp/6-31g(2df,p)

Title Card Required 

0  1
C           1.20023        -0.24041        -0.44963
P           2.83431         0.10737         0.14222
O           3.99447        -0.65729        -0.41818
C           2.62122         0.01268         1.91214
C           2.07465         1.39356         2.25020
C           2.67523         2.38696         1.25075
O           2.95124         1.71555         0.02119
H           0.96547        -1.30108        -0.33300
H           1.04074         0.06925        -1.48251
H           0.48851         0.31328         0.17058
H           3.56190        -0.19298         2.42634
H           1.90440        -0.77784         2.15821
H           2.27467         1.67525         3.28596
H           0.98538         1.38474         2.12306
H           3.61782         2.79695         1.62064
H           1.98386         3.21165         1.05088

