%chk=CtCCCCqCrqCrC.chk
%NProcShared=20
# opt freq b3lyp/6-31g(2df,p)

Title Card Required 

0  1
C           0.92919         0.07025         0.00707
C           2.23304         0.07025         0.00707
C           3.75304         0.07025         0.00707
C           4.30817         1.41219        -0.43603
C           5.85516         1.43628        -0.44398
C           6.40292         1.17155         0.96918
C           6.40292         0.38212        -1.42166
C           6.31729         2.82752        -0.90336
H          -0.13644         0.07040         0.00702
H           4.06658        -0.74008        -0.65759
H           4.06658        -0.18498         1.02357
H           3.92468         2.19995         0.22673
H           3.92467         1.65042        -1.43756
H           6.14465         0.17058         1.33072
H           6.00595         1.89703         1.68632
H           7.49678         1.23914         0.98859
H           6.14465        -0.63733        -1.11607
H           7.49678         0.42486        -1.47750
H           6.00594         0.53793        -2.42979
H           5.95137         3.60882        -0.22935
H           5.95137         3.05386        -1.91008
H           7.41242         2.88832        -0.92343

