%chk=NNdCqOrCCc1cccq[N+]qdOr[O-]rcc1.chk
%NProcShared=20
# opt freq b3lyp/6-31g(2df,p)

Title Card Required 

0  1
N           1.08818        -0.06971         0.07738
N           2.41677        -0.08515         0.04824
C           3.06426        -1.18915         0.23929
O           2.48862        -2.37852         0.46076
C           4.55792        -1.19909         0.23781
C           5.19117        -2.57059         0.46674
C           6.70539        -2.54615         0.49538
C           7.41374        -3.74804         0.64810
C           8.80342        -3.73396         0.80657
C           9.49533        -2.51764         0.72592
N          10.95948        -2.50181         0.75397
O          11.54735        -3.58067         0.88145
O          11.52450        -1.40186         0.62287
C           8.80726        -1.31805         0.55665
C           7.42318        -1.34031         0.44369
H           0.63838         0.82204        -0.11014
H           0.47923        -0.86454         0.18217
H           1.53183        -2.27936         0.45222
H           4.87082        -0.50476         1.02927
H           4.88955        -0.78954        -0.72477
H           4.85160        -3.26905        -0.30895
H           4.84768        -2.96391         1.43327
H           6.88777        -4.70247         0.64901
H           9.32772        -4.66873         0.99079
H           9.31799        -0.35899         0.51198
H           6.92369        -0.38446         0.31189

