%chk=OCdNNqc1ccccc1rc1ccccc1.chk
%NProcShared=20
# opt freq b3lyp/6-31g(2df,p)

Title Card Required 

0  1
O           0.97544         0.03845        -0.20225
C           2.31831         0.14064        -0.16076
N           3.02633        -0.04489        -1.22164
N           4.40689         0.01967        -1.14849
C           5.13651         0.00933         0.08187
C           6.27092         0.83295         0.22458
C           7.06440         0.77065         1.36945
C           6.68619        -0.05150         2.42694
C           5.55191        -0.85218         2.31691
C           4.80784        -0.84971         1.13788
C           5.09137        -0.03700        -2.40924
C           6.25063        -0.82708        -2.56102
C           7.03356        -0.75471        -3.71539
C           6.63737         0.06612        -4.76580
C           5.46745         0.81849        -4.65504
C           4.69492         0.76178        -3.48811
H           0.59081         0.12817         0.68561
H           2.65570         0.36121         0.86027
H           6.54785         1.52150        -0.57324
H           7.97834         1.35570         1.42807
H           7.28427        -0.07936         3.33318
H           5.25897        -1.50382         3.13470
H           3.97684        -1.54180         1.03672
H           6.55385        -1.50508        -1.76591
H           7.95598        -1.32572        -3.78353
H           7.23849         0.11848        -5.66997
H           5.16773         1.47257        -5.46917
H           3.80907         1.38412        -3.39817

