%chk=OdC1CCdCCdC1CqOrdCqOrO.chk
%NProcShared=20
# opt freq b3lyp/6-31g(2df,p)

Title Card Required 

0  1
O           0.98714         0.22717         0.08199
C           2.21210         0.05650         0.05942
C           3.01937         1.31962         0.02532
C           4.48098         1.12383         0.04791
C           5.02420        -0.09416         0.05865
C           4.20305        -1.29295         0.05400
C           2.84512        -1.31957         0.05512
C           2.00018        -2.55565         0.05119
O           2.67921        -3.79346         0.04922
C           0.64378        -2.68782         0.04769
O          -0.30608        -1.71266         0.04460
O           0.07687        -3.94806         0.04522
H           2.70873         1.90431         0.89781
H           2.72914         1.84416        -0.89073
H           5.08655         2.02499         0.04983
H           6.10808        -0.19337         0.06607
H           4.81662        -2.18945         0.05037
H           3.63864        -3.67819         0.04936
H           0.10610        -0.83027         0.05257
H           0.81487        -4.57818         0.04674

