%chk=OdCqOrc1cccnc1.chk
%NProcShared=20
# opt freq b3lyp/6-31g(2df,p)

Title Card Required 

0  1
O           1.09615        -0.08256        -0.04522
C           2.31579        -0.07489         0.01492
O           3.03962         1.05353         0.16166
C           3.11075        -1.30805        -0.11532
C           2.73113        -2.29029        -1.03291
C           3.46264        -3.47439        -1.11071
C           4.54469        -3.63477        -0.25934
N           4.92635        -2.70871         0.65049
C           4.18971        -1.57203         0.71429
H           4.00696         0.98050         0.05822
H           1.86516        -2.14150        -1.67423
H           3.19096        -4.25669        -1.81209
H           5.14536        -4.54093        -0.28264
H           4.49618        -0.88110         1.49412

